NAME (null)_copy
ROWS
 N  OBJ
 E  c0      
 E  c1      
 E  c2      
 E  c3      
 E  c4      
 E  c5      
 E  c6      
 E  c7      
 E  c8      
 E  c9      
 E  c10     
 E  c11     
 E  c12     
 E  c13     
 E  c14     
 E  c15     
 E  c16     
 E  c17     
 E  c18     
 E  c19     
 E  c20     
 E  c21     
 E  c22     
 E  c23     
 E  c24     
 E  c25     
 E  c26     
 E  c27     
 E  c28     
 E  c29     
 E  c30     
 E  c31     
 L  c32     
 L  c33     
 L  c34     
 L  c35     
 L  c36     
 L  c37     
 L  c38     
 L  c39     
 L  c40     
 L  c41     
 L  c42     
 L  c43     
 L  c44     
 L  c45     
 L  c46     
 L  c47     
 E  c48     
 E  c49     
 E  c50     
 E  c51     
 E  c52     
 E  c53     
 E  c54     
 E  c55     
 E  c56     
 E  c57     
 E  c58     
 E  c59     
 E  c60     
 E  c61     
 E  c62     
 E  c63     
 L  c64     
 L  c65     
 L  c66     
 L  c67     
 L  c68     
 L  c69     
 L  c70     
 L  c71     
 L  c72     
 L  c73     
 L  c74     
 L  c75     
 L  c76     
 L  c77     
 L  c78     
 L  c79     
 L  c80     
 L  c81     
 L  c82     
 L  c83     
 L  c84     
 L  c85     
 L  c86     
 L  c87     
 L  c88     
 L  c89     
 L  c90     
 L  c91     
 L  c92     
 L  c93     
 L  c94     
 L  c95     
 L  c96     
 L  c97     
 L  c98     
 L  c99     
 L  c100    
 L  c101    
 L  c102    
 L  c103    
 L  c104    
 L  c105    
 L  c106    
 L  c107    
 L  c108    
 L  c109    
 L  c110    
 L  c111    
 L  c112    
 L  c113    
 L  c114    
 L  c115    
 L  c116    
 L  c117    
 L  c118    
 L  c119    
 L  c120    
 L  c121    
 L  c122    
 L  c123    
 L  c124    
 L  c125    
 L  c126    
 L  c127    
 L  c128    
 L  c129    
 L  c130    
 L  c131    
 L  c132    
 L  c133    
 L  c134    
 L  c135    
 L  c136    
 L  c137    
 L  c138    
 L  c139    
 L  c140    
 L  c141    
 L  c142    
 L  c143    
 L  c144    
 L  c145    
 L  c146    
 L  c147    
 L  c148    
 L  c149    
 L  c150    
 L  c151    
 L  c152    
 L  c153    
 L  c154    
 L  c155    
 L  c156    
 L  c157    
 L  c158    
 L  c159    
 L  c160    
 L  c161    
 L  c162    
 L  c163    
 L  c164    
 L  c165    
 L  c166    
 L  c167    
 L  c168    
 L  c169    
 L  c170    
 L  c171    
 L  c172    
 L  c173    
 L  c174    
 L  c175    
 L  c176    
 L  c177    
 L  c178    
 L  c179    
 L  c180    
 L  c181    
 L  c182    
 L  c183    
 L  c184    
 L  c185    
 L  c186    
 L  c187    
 L  c188    
 L  c189    
 L  c190    
 L  c191    
 L  c192    
 L  c193    
 L  c194    
 L  c195    
 L  c196    
 L  c197    
 L  c198    
 L  c199    
 L  c200    
 L  c201    
 L  c202    
 L  c203    
 L  c204    
 L  c205    
 L  c206    
 L  c207    
 L  c208    
 L  c209    
 L  c210    
 L  c211    
 L  c212    
 L  c213    
 L  c214    
 L  c215    
 L  c216    
 L  c217    
 L  c218    
 L  c219    
 L  c220    
 L  c221    
 L  c222    
 L  c223    
 L  c224    
 L  c225    
 L  c226    
 L  c227    
 L  c228    
 L  c229    
 L  c230    
 L  c231    
 L  c232    
 L  c233    
 L  c234    
 L  c235    
COLUMNS
    MARKER    'MARKER'                 'INTORG'
    x[0,0,0]  c0        1
    x[0,0,0]  c4        -1
    x[0,0,0]  c32       1
    x[0,0,0]  c64       4
    x[0,0,0]  c80       4
    x[0,0,0]  c88       4
    x[0,0,0]  c104      4
    x[0,0,0]  c184      1
    x[0,0,0]  c204      1
    x[0,0,0]  c223      -1
    x[0,0,0]  c227      -1
    x[0,0,0]  c231      -1
    x[0,0,0]  c235      -1
    x[0,0,1]  c0        1
    x[0,0,1]  c5        -1
    x[0,0,1]  c33       1
    x[0,0,1]  c65       4
    x[0,0,1]  c82       4
    x[0,0,1]  c92       4
    x[0,0,1]  c107      4
    x[0,0,1]  c188      1
    x[0,0,1]  c208      1
    x[0,0,1]  c227      -1
    x[0,0,1]  c231      -1
    x[0,0,1]  c235      -1
    x[0,0,2]  c0        1
    x[0,0,2]  c6        -1
    x[0,0,2]  c34       1
    x[0,0,2]  c66       4
    x[0,0,2]  c84       4
    x[0,0,2]  c96       4
    x[0,0,2]  c110      4
    x[0,0,2]  c192      1
    x[0,0,2]  c212      1
    x[0,0,2]  c231      -1
    x[0,0,2]  c235      -1
    x[0,0,3]  c0        1
    x[0,0,3]  c35       1
    x[0,0,3]  c67       4
    x[0,0,3]  c86       4
    x[0,0,3]  c100      4
    x[0,0,3]  c113      4
    x[0,0,3]  c196      1
    x[0,0,3]  c216      1
    x[0,0,3]  c235      -1
    x[1,0,0]  c1        1
    x[1,0,0]  c7        -1
    x[1,0,0]  c36       1
    x[1,0,0]  c68       4
    x[1,0,0]  c89       4
    x[1,0,0]  c136      -1
    x[1,0,0]  c154      -1
    x[1,0,0]  c170      -1
    x[1,0,0]  c185      1
    x[1,0,0]  c205      1
    x[1,0,0]  c220      -1
    x[1,0,0]  c222      -1
    x[1,0,0]  c223      -1
    x[1,0,0]  c224      -1
    x[1,0,0]  c226      -1
    x[1,0,0]  c227      -1
    x[1,0,0]  c228      -1
    x[1,0,0]  c230      -1
    x[1,0,0]  c231      -1
    x[1,0,0]  c232      -1
    x[1,0,0]  c234      -1
    x[1,0,0]  c235      -1
    x[1,0,1]  c1        1
    x[1,0,1]  c8        -1
    x[1,0,1]  c37       1
    x[1,0,1]  c69       4
    x[1,0,1]  c93       4
    x[1,0,1]  c140      -1
    x[1,0,1]  c158      -1
    x[1,0,1]  c174      -1
    x[1,0,1]  c189      1
    x[1,0,1]  c209      1
    x[1,0,1]  c224      -1
    x[1,0,1]  c226      -1
    x[1,0,1]  c227      -1
    x[1,0,1]  c228      -1
    x[1,0,1]  c230      -1
    x[1,0,1]  c231      -1
    x[1,0,1]  c232      -1
    x[1,0,1]  c234      -1
    x[1,0,1]  c235      -1
    x[1,0,2]  c1        1
    x[1,0,2]  c9        -1
    x[1,0,2]  c38       1
    x[1,0,2]  c70       4
    x[1,0,2]  c97       4
    x[1,0,2]  c144      -1
    x[1,0,2]  c162      -1
    x[1,0,2]  c178      -1
    x[1,0,2]  c193      1
    x[1,0,2]  c213      1
    x[1,0,2]  c228      -1
    x[1,0,2]  c230      -1
    x[1,0,2]  c231      -1
    x[1,0,2]  c232      -1
    x[1,0,2]  c234      -1
    x[1,0,2]  c235      -1
    x[1,0,3]  c1        1
    x[1,0,3]  c39       1
    x[1,0,3]  c71       4
    x[1,0,3]  c101      4
    x[1,0,3]  c148      -1
    x[1,0,3]  c166      -1
    x[1,0,3]  c182      -1
    x[1,0,3]  c197      1
    x[1,0,3]  c217      1
    x[1,0,3]  c232      -1
    x[1,0,3]  c234      -1
    x[1,0,3]  c235      -1
    x[2,0,0]  c2        1
    x[2,0,0]  c10       -1
    x[2,0,0]  c40       1
    x[2,0,0]  c72       4
    x[2,0,0]  c90       4
    x[2,0,0]  c105      4
    x[2,0,0]  c136      -1
    x[2,0,0]  c186      1
    x[2,0,0]  c206      1
    x[2,0,0]  c220      -1
    x[2,0,0]  c223      -1
    x[2,0,0]  c224      -1
    x[2,0,0]  c227      -1
    x[2,0,0]  c228      -1
    x[2,0,0]  c231      -1
    x[2,0,0]  c232      -1
    x[2,0,0]  c235      -1
    x[2,0,1]  c2        1
    x[2,0,1]  c11       -1
    x[2,0,1]  c41       1
    x[2,0,1]  c73       4
    x[2,0,1]  c94       4
    x[2,0,1]  c108      4
    x[2,0,1]  c140      -1
    x[2,0,1]  c190      1
    x[2,0,1]  c210      1
    x[2,0,1]  c224      -1
    x[2,0,1]  c227      -1
    x[2,0,1]  c228      -1
    x[2,0,1]  c231      -1
    x[2,0,1]  c232      -1
    x[2,0,1]  c235      -1
    x[2,0,2]  c2        1
    x[2,0,2]  c12       -1
    x[2,0,2]  c42       1
    x[2,0,2]  c74       4
    x[2,0,2]  c98       4
    x[2,0,2]  c111      4
    x[2,0,2]  c144      -1
    x[2,0,2]  c194      1
    x[2,0,2]  c214      1
    x[2,0,2]  c228      -1
    x[2,0,2]  c231      -1
    x[2,0,2]  c232      -1
    x[2,0,2]  c235      -1
    x[2,0,3]  c2        1
    x[2,0,3]  c43       1
    x[2,0,3]  c75       4
    x[2,0,3]  c102      4
    x[2,0,3]  c114      4
    x[2,0,3]  c148      -1
    x[2,0,3]  c198      1
    x[2,0,3]  c218      1
    x[2,0,3]  c232      -1
    x[2,0,3]  c235      -1
    x[3,0,0]  c3        1
    x[3,0,0]  c13       -1
    x[3,0,0]  c44       1
    x[3,0,0]  c76       4
    x[3,0,0]  c81       4
    x[3,0,0]  c91       4
    x[3,0,0]  c106      4
    x[3,0,0]  c116      4
    x[3,0,0]  c187      1
    x[3,0,0]  c207      1
    x[3,0,1]  c3        1
    x[3,0,1]  c14       -1
    x[3,0,1]  c45       1
    x[3,0,1]  c77       4
    x[3,0,1]  c83       4
    x[3,0,1]  c95       4
    x[3,0,1]  c109      4
    x[3,0,1]  c117      4
    x[3,0,1]  c191      1
    x[3,0,1]  c211      1
    x[3,0,2]  c3        1
    x[3,0,2]  c15       -1
    x[3,0,2]  c46       1
    x[3,0,2]  c78       4
    x[3,0,2]  c85       4
    x[3,0,2]  c99       4
    x[3,0,2]  c112      4
    x[3,0,2]  c118      4
    x[3,0,2]  c195      1
    x[3,0,2]  c215      1
    x[3,0,3]  c3        1
    x[3,0,3]  c47       1
    x[3,0,3]  c79       4
    x[3,0,3]  c87       4
    x[3,0,3]  c103      4
    x[3,0,3]  c115      4
    x[3,0,3]  c119      4
    x[3,0,3]  c199      1
    x[3,0,3]  c219      1
    y[0,0,0]  c120      -1
    y[0,0,0]  c153      -1
    y[0,0,0]  c154      -1
    y[0,0,0]  c200      1
    y[0,0,0]  c204      -1
    y[0,0,0]  c205      -1
    y[0,0,0]  c206      -1
    y[0,0,0]  c220      6
    y[0,0,1]  c124      -1
    y[0,0,1]  c157      -1
    y[0,0,1]  c158      -1
    y[0,0,1]  c201      1
    y[0,0,1]  c208      -1
    y[0,0,1]  c209      -1
    y[0,0,1]  c210      -1
    y[0,0,1]  c224      6
    y[0,0,2]  c128      -1
    y[0,0,2]  c161      -1
    y[0,0,2]  c162      -1
    y[0,0,2]  c202      1
    y[0,0,2]  c212      -1
    y[0,0,2]  c213      -1
    y[0,0,2]  c214      -1
    y[0,0,2]  c228      6
    y[0,0,3]  c132      -1
    y[0,0,3]  c165      -1
    y[0,0,3]  c166      -1
    y[0,0,3]  c203      1
    y[0,0,3]  c216      -1
    y[0,0,3]  c217      -1
    y[0,0,3]  c218      -1
    y[0,0,3]  c232      6
    y[1,0,0]  c121      -1
    y[1,0,0]  c200      1
    y[1,0,0]  c205      -1
    y[1,0,0]  c221      3
    y[1,0,1]  c125      -1
    y[1,0,1]  c201      1
    y[1,0,1]  c209      -1
    y[1,0,1]  c225      3
    y[1,0,2]  c129      -1
    y[1,0,2]  c202      1
    y[1,0,2]  c213      -1
    y[1,0,2]  c229      3
    y[1,0,3]  c133      -1
    y[1,0,3]  c203      1
    y[1,0,3]  c217      -1
    y[1,0,3]  c233      3
    y[2,0,0]  c121      -1
    y[2,0,0]  c122      -1
    y[2,0,0]  c200      1
    y[2,0,0]  c205      -1
    y[2,0,0]  c206      -1
    y[2,0,0]  c222      6
    y[2,0,1]  c125      -1
    y[2,0,1]  c126      -1
    y[2,0,1]  c201      1
    y[2,0,1]  c209      -1
    y[2,0,1]  c210      -1
    y[2,0,1]  c226      6
    y[2,0,2]  c129      -1
    y[2,0,2]  c130      -1
    y[2,0,2]  c202      1
    y[2,0,2]  c213      -1
    y[2,0,2]  c214      -1
    y[2,0,2]  c230      6
    y[2,0,3]  c133      -1
    y[2,0,3]  c134      -1
    y[2,0,3]  c203      1
    y[2,0,3]  c217      -1
    y[2,0,3]  c218      -1
    y[2,0,3]  c234      6
    y[3,0,0]  c121      -1
    y[3,0,0]  c122      -1
    y[3,0,0]  c123      -1
    y[3,0,0]  c200      1
    y[3,0,0]  c204      -1
    y[3,0,0]  c205      -1
    y[3,0,0]  c206      -1
    y[3,0,0]  c207      -1
    y[3,0,0]  c223      15
    y[3,0,1]  c125      -1
    y[3,0,1]  c126      -1
    y[3,0,1]  c127      -1
    y[3,0,1]  c201      1
    y[3,0,1]  c208      -1
    y[3,0,1]  c209      -1
    y[3,0,1]  c210      -1
    y[3,0,1]  c211      -1
    y[3,0,1]  c227      15
    y[3,0,2]  c129      -1
    y[3,0,2]  c130      -1
    y[3,0,2]  c131      -1
    y[3,0,2]  c202      1
    y[3,0,2]  c212      -1
    y[3,0,2]  c213      -1
    y[3,0,2]  c214      -1
    y[3,0,2]  c215      -1
    y[3,0,2]  c231      15
    y[3,0,3]  c133      -1
    y[3,0,3]  c134      -1
    y[3,0,3]  c135      -1
    y[3,0,3]  c203      1
    y[3,0,3]  c216      -1
    y[3,0,3]  c217      -1
    y[3,0,3]  c218      -1
    y[3,0,3]  c219      -1
    y[3,0,3]  c235      15
    z1[0,0,0]  c120      1
    z1[0,0,0]  c184      -1
    z2[0,0,0]  c136      6
    z2[0,0,0]  c184      -1
    z3[0,0,0]  c152      2
    z3[0,0,0]  c184      -1
    z3[0,0,0]  c220      1
    z3[0,0,0]  c221      1
    z3[0,0,0]  c222      1
    z3[0,0,0]  c223      1
    z4[0,0,0]  c168      2
    z4[0,0,0]  c184      -1
    z4[0,0,0]  c220      1
    z4[0,0,0]  c221      1
    z4[0,0,0]  c222      1
    z4[0,0,0]  c223      1
    z1[0,0,1]  c124      1
    z1[0,0,1]  c188      -1
    z2[0,0,1]  c140      6
    z2[0,0,1]  c188      -1
    z3[0,0,1]  c156      2
    z3[0,0,1]  c188      -1
    z3[0,0,1]  c224      1
    z3[0,0,1]  c225      1
    z3[0,0,1]  c226      1
    z3[0,0,1]  c227      1
    z4[0,0,1]  c172      2
    z4[0,0,1]  c188      -1
    z4[0,0,1]  c224      1
    z4[0,0,1]  c225      1
    z4[0,0,1]  c226      1
    z4[0,0,1]  c227      1
    z1[0,0,2]  c128      1
    z1[0,0,2]  c192      -1
    z2[0,0,2]  c144      6
    z2[0,0,2]  c192      -1
    z3[0,0,2]  c160      2
    z3[0,0,2]  c192      -1
    z3[0,0,2]  c228      1
    z3[0,0,2]  c229      1
    z3[0,0,2]  c230      1
    z3[0,0,2]  c231      1
    z4[0,0,2]  c176      2
    z4[0,0,2]  c192      -1
    z4[0,0,2]  c228      1
    z4[0,0,2]  c229      1
    z4[0,0,2]  c230      1
    z4[0,0,2]  c231      1
    z1[0,0,3]  c132      1
    z1[0,0,3]  c196      -1
    z2[0,0,3]  c148      6
    z2[0,0,3]  c196      -1
    z3[0,0,3]  c164      2
    z3[0,0,3]  c196      -1
    z3[0,0,3]  c232      1
    z3[0,0,3]  c233      1
    z3[0,0,3]  c234      1
    z3[0,0,3]  c235      1
    z4[0,0,3]  c180      2
    z4[0,0,3]  c196      -1
    z4[0,0,3]  c232      1
    z4[0,0,3]  c233      1
    z4[0,0,3]  c234      1
    z4[0,0,3]  c235      1
    z1[1,0,0]  c121      1
    z1[1,0,0]  c185      -1
    z2[1,0,0]  c137      6
    z2[1,0,0]  c185      -1
    z3[1,0,0]  c136      1
    z3[1,0,0]  c153      1
    z3[1,0,0]  c185      -1
    z3[1,0,0]  c220      1
    z3[1,0,0]  c221      1
    z3[1,0,0]  c222      1
    z3[1,0,0]  c223      1
    z4[1,0,0]  c136      1
    z4[1,0,0]  c169      1
    z4[1,0,0]  c185      -1
    z4[1,0,0]  c220      1
    z4[1,0,0]  c221      1
    z4[1,0,0]  c222      1
    z4[1,0,0]  c223      1
    z1[1,0,1]  c125      1
    z1[1,0,1]  c189      -1
    z2[1,0,1]  c141      6
    z2[1,0,1]  c189      -1
    z3[1,0,1]  c140      1
    z3[1,0,1]  c157      1
    z3[1,0,1]  c189      -1
    z3[1,0,1]  c224      1
    z3[1,0,1]  c225      1
    z3[1,0,1]  c226      1
    z3[1,0,1]  c227      1
    z4[1,0,1]  c140      1
    z4[1,0,1]  c173      1
    z4[1,0,1]  c189      -1
    z4[1,0,1]  c224      1
    z4[1,0,1]  c225      1
    z4[1,0,1]  c226      1
    z4[1,0,1]  c227      1
    z1[1,0,2]  c129      1
    z1[1,0,2]  c193      -1
    z2[1,0,2]  c145      6
    z2[1,0,2]  c193      -1
    z3[1,0,2]  c144      1
    z3[1,0,2]  c161      1
    z3[1,0,2]  c193      -1
    z3[1,0,2]  c228      1
    z3[1,0,2]  c229      1
    z3[1,0,2]  c230      1
    z3[1,0,2]  c231      1
    z4[1,0,2]  c144      1
    z4[1,0,2]  c177      1
    z4[1,0,2]  c193      -1
    z4[1,0,2]  c228      1
    z4[1,0,2]  c229      1
    z4[1,0,2]  c230      1
    z4[1,0,2]  c231      1
    z1[1,0,3]  c133      1
    z1[1,0,3]  c197      -1
    z2[1,0,3]  c149      6
    z2[1,0,3]  c197      -1
    z3[1,0,3]  c148      1
    z3[1,0,3]  c165      1
    z3[1,0,3]  c197      -1
    z3[1,0,3]  c232      1
    z3[1,0,3]  c233      1
    z3[1,0,3]  c234      1
    z3[1,0,3]  c235      1
    z4[1,0,3]  c148      1
    z4[1,0,3]  c181      1
    z4[1,0,3]  c197      -1
    z4[1,0,3]  c232      1
    z4[1,0,3]  c233      1
    z4[1,0,3]  c234      1
    z4[1,0,3]  c235      1
    z1[2,0,0]  c122      1
    z1[2,0,0]  c186      -1
    z2[2,0,0]  c138      6
    z2[2,0,0]  c186      -1
    z3[2,0,0]  c136      1
    z3[2,0,0]  c154      2
    z3[2,0,0]  c186      -1
    z3[2,0,0]  c220      1
    z3[2,0,0]  c221      1
    z3[2,0,0]  c222      1
    z3[2,0,0]  c223      1
    z4[2,0,0]  c136      1
    z4[2,0,0]  c170      2
    z4[2,0,0]  c186      -1
    z4[2,0,0]  c220      1
    z4[2,0,0]  c221      1
    z4[2,0,0]  c222      1
    z4[2,0,0]  c223      1
    z1[2,0,1]  c126      1
    z1[2,0,1]  c190      -1
    z2[2,0,1]  c142      6
    z2[2,0,1]  c190      -1
    z3[2,0,1]  c140      1
    z3[2,0,1]  c158      2
    z3[2,0,1]  c190      -1
    z3[2,0,1]  c224      1
    z3[2,0,1]  c225      1
    z3[2,0,1]  c226      1
    z3[2,0,1]  c227      1
    z4[2,0,1]  c140      1
    z4[2,0,1]  c174      2
    z4[2,0,1]  c190      -1
    z4[2,0,1]  c224      1
    z4[2,0,1]  c225      1
    z4[2,0,1]  c226      1
    z4[2,0,1]  c227      1
    z1[2,0,2]  c130      1
    z1[2,0,2]  c194      -1
    z2[2,0,2]  c146      6
    z2[2,0,2]  c194      -1
    z3[2,0,2]  c144      1
    z3[2,0,2]  c162      2
    z3[2,0,2]  c194      -1
    z3[2,0,2]  c228      1
    z3[2,0,2]  c229      1
    z3[2,0,2]  c230      1
    z3[2,0,2]  c231      1
    z4[2,0,2]  c144      1
    z4[2,0,2]  c178      2
    z4[2,0,2]  c194      -1
    z4[2,0,2]  c228      1
    z4[2,0,2]  c229      1
    z4[2,0,2]  c230      1
    z4[2,0,2]  c231      1
    z1[2,0,3]  c134      1
    z1[2,0,3]  c198      -1
    z2[2,0,3]  c150      6
    z2[2,0,3]  c198      -1
    z3[2,0,3]  c148      1
    z3[2,0,3]  c166      2
    z3[2,0,3]  c198      -1
    z3[2,0,3]  c232      1
    z3[2,0,3]  c233      1
    z3[2,0,3]  c234      1
    z3[2,0,3]  c235      1
    z4[2,0,3]  c148      1
    z4[2,0,3]  c182      2
    z4[2,0,3]  c198      -1
    z4[2,0,3]  c232      1
    z4[2,0,3]  c233      1
    z4[2,0,3]  c234      1
    z4[2,0,3]  c235      1
    z1[3,0,0]  c123      1
    z1[3,0,0]  c187      -1
    z2[3,0,0]  c139      6
    z2[3,0,0]  c187      -1
    z3[3,0,0]  c155      2
    z3[3,0,0]  c187      -1
    z3[3,0,0]  c220      1
    z3[3,0,0]  c221      1
    z3[3,0,0]  c222      1
    z3[3,0,0]  c223      1
    z4[3,0,0]  c171      2
    z4[3,0,0]  c187      -1
    z4[3,0,0]  c220      1
    z4[3,0,0]  c221      1
    z4[3,0,0]  c222      1
    z4[3,0,0]  c223      1
    z1[3,0,1]  c127      1
    z1[3,0,1]  c191      -1
    z2[3,0,1]  c143      6
    z2[3,0,1]  c191      -1
    z3[3,0,1]  c159      2
    z3[3,0,1]  c191      -1
    z3[3,0,1]  c224      1
    z3[3,0,1]  c225      1
    z3[3,0,1]  c226      1
    z3[3,0,1]  c227      1
    z4[3,0,1]  c175      2
    z4[3,0,1]  c191      -1
    z4[3,0,1]  c224      1
    z4[3,0,1]  c225      1
    z4[3,0,1]  c226      1
    z4[3,0,1]  c227      1
    z1[3,0,2]  c131      1
    z1[3,0,2]  c195      -1
    z2[3,0,2]  c147      6
    z2[3,0,2]  c195      -1
    z3[3,0,2]  c163      2
    z3[3,0,2]  c195      -1
    z3[3,0,2]  c228      1
    z3[3,0,2]  c229      1
    z3[3,0,2]  c230      1
    z3[3,0,2]  c231      1
    z4[3,0,2]  c179      2
    z4[3,0,2]  c195      -1
    z4[3,0,2]  c228      1
    z4[3,0,2]  c229      1
    z4[3,0,2]  c230      1
    z4[3,0,2]  c231      1
    z1[3,0,3]  c135      1
    z1[3,0,3]  c199      -1
    z2[3,0,3]  c151      6
    z2[3,0,3]  c199      -1
    z3[3,0,3]  c167      2
    z3[3,0,3]  c199      -1
    z3[3,0,3]  c232      1
    z3[3,0,3]  c233      1
    z3[3,0,3]  c234      1
    z3[3,0,3]  c235      1
    z4[3,0,3]  c183      2
    z4[3,0,3]  c199      -1
    z4[3,0,3]  c232      1
    z4[3,0,3]  c233      1
    z4[3,0,3]  c234      1
    z4[3,0,3]  c235      1
    u[0,0,0]  c32       -1
    u[0,0,0]  c48       1
    u[0,0,1]  c33       -1
    u[0,0,1]  c52       1
    u[0,0,2]  c34       -1
    u[0,0,2]  c56       1
    u[0,0,3]  c35       -1
    u[0,0,3]  c60       1
    u[1,0,0]  c36       -1
    u[1,0,0]  c49       1
    u[1,0,1]  c37       -1
    u[1,0,1]  c53       1
    u[1,0,2]  c38       -1
    u[1,0,2]  c57       1
    u[1,0,3]  c39       -1
    u[1,0,3]  c61       1
    u[2,0,0]  c40       -1
    u[2,0,0]  c50       1
    u[2,0,1]  c41       -1
    u[2,0,1]  c54       1
    u[2,0,2]  c42       -1
    u[2,0,2]  c58       1
    u[2,0,3]  c43       -1
    u[2,0,3]  c62       1
    u[3,0,0]  c44       -1
    u[3,0,0]  c51       1
    u[3,0,1]  c45       -1
    u[3,0,1]  c55       1
    u[3,0,2]  c46       -1
    u[3,0,2]  c59       1
    u[3,0,3]  c47       -1
    u[3,0,3]  c63       1
    MARKER    'MARKER'                 'INTEND'
    h[0,0]    c4        1
    h[0,0]    c80       -1
    h[0,0]    c81       -1
    h[0,1]    c4        -1
    h[0,1]    c5        1
    h[0,1]    c82       -1
    h[0,1]    c83       -1
    h[0,2]    c5        -1
    h[0,2]    c6        1
    h[0,2]    c84       -1
    h[0,2]    c85       -1
    h[0,3]    c6        -1
    h[0,3]    c86       -1
    h[0,3]    c87       -1
    h[1,0]    c7        1
    h[1,0]    c88       -1
    h[1,0]    c89       -1
    h[1,0]    c90       -1
    h[1,0]    c91       -1
    h[1,1]    c7        -1
    h[1,1]    c8        1
    h[1,1]    c92       -1
    h[1,1]    c93       -1
    h[1,1]    c94       -1
    h[1,1]    c95       -1
    h[1,2]    c8        -1
    h[1,2]    c9        1
    h[1,2]    c96       -1
    h[1,2]    c97       -1
    h[1,2]    c98       -1
    h[1,2]    c99       -1
    h[1,3]    c9        -1
    h[1,3]    c100      -1
    h[1,3]    c101      -1
    h[1,3]    c102      -1
    h[1,3]    c103      -1
    h[2,0]    c10       1
    h[2,0]    c104      -1
    h[2,0]    c105      -1
    h[2,0]    c106      -1
    h[2,1]    c10       -1
    h[2,1]    c11       1
    h[2,1]    c107      -1
    h[2,1]    c108      -1
    h[2,1]    c109      -1
    h[2,2]    c11       -1
    h[2,2]    c12       1
    h[2,2]    c110      -1
    h[2,2]    c111      -1
    h[2,2]    c112      -1
    h[2,3]    c12       -1
    h[2,3]    c113      -1
    h[2,3]    c114      -1
    h[2,3]    c115      -1
    h[3,0]    c13       1
    h[3,0]    c116      -1
    h[3,1]    c13       -1
    h[3,1]    c14       1
    h[3,1]    c117      -1
    h[3,2]    c14       -1
    h[3,2]    c15       1
    h[3,2]    c118      -1
    h[3,3]    c15       -1
    h[3,3]    c119      -1
    e[0]      OBJ       1
    e[0]      c220      -1
    e[0]      c221      -1
    e[0]      c222      -1
    e[0]      c223      -1
    e[1]      OBJ       1
    e[1]      c224      -1
    e[1]      c225      -1
    e[1]      c226      -1
    e[1]      c227      -1
    e[2]      OBJ       1
    e[2]      c228      -1
    e[2]      c229      -1
    e[2]      c230      -1
    e[2]      c231      -1
    e[3]      OBJ       1
    e[3]      c232      -1
    e[3]      c233      -1
    e[3]      c234      -1
    e[3]      c235      -1
RHS
    RHS1      c0        1
    RHS1      c1        1
    RHS1      c2        1
    RHS1      c3        1
    RHS1      c48       1
    RHS1      c49       1
    RHS1      c50       1
    RHS1      c51       1
    RHS1      c52       1
    RHS1      c53       1
    RHS1      c54       1
    RHS1      c55       1
    RHS1      c56       1
    RHS1      c57       1
    RHS1      c58       1
    RHS1      c59       1
    RHS1      c60       1
    RHS1      c61       1
    RHS1      c62       1
    RHS1      c63       1
    RHS1      c64       1002
    RHS1      c65       1002
    RHS1      c66       1002
    RHS1      c67       1002
    RHS1      c68       1003
    RHS1      c69       1003
    RHS1      c70       1003
    RHS1      c71       1003
    RHS1      c72       1003
    RHS1      c73       1003
    RHS1      c74       1003
    RHS1      c75       1003
    RHS1      c76       7
    RHS1      c77       7
    RHS1      c78       7
    RHS1      c79       7
    RHS1      c80       2
    RHS1      c81       3
    RHS1      c82       2
    RHS1      c83       3
    RHS1      c84       2
    RHS1      c85       3
    RHS1      c86       2
    RHS1      c87       3
    RHS1      c88       2
    RHS1      c89       3
    RHS1      c90       3
    RHS1      c91       3
    RHS1      c92       2
    RHS1      c93       3
    RHS1      c94       3
    RHS1      c95       3
    RHS1      c96       2
    RHS1      c97       3
    RHS1      c98       3
    RHS1      c99       3
    RHS1      c100      2
    RHS1      c101      3
    RHS1      c102      3
    RHS1      c103      3
    RHS1      c104      2
    RHS1      c105      3
    RHS1      c106      3
    RHS1      c107      2
    RHS1      c108      3
    RHS1      c109      3
    RHS1      c110      2
    RHS1      c111      3
    RHS1      c112      3
    RHS1      c113      2
    RHS1      c114      3
    RHS1      c115      3
    RHS1      c116      3
    RHS1      c117      3
    RHS1      c118      3
    RHS1      c119      3
    RHS1      c136      3
    RHS1      c137      5
    RHS1      c138      4
    RHS1      c139      1
    RHS1      c140      3
    RHS1      c141      5
    RHS1      c142      4
    RHS1      c143      1
    RHS1      c144      3
    RHS1      c145      5
    RHS1      c146      4
    RHS1      c147      1
    RHS1      c148      3
    RHS1      c149      5
    RHS1      c150      4
    RHS1      c151      1
    RHS1      c200      1
    RHS1      c201      1
    RHS1      c202      1
    RHS1      c203      1
    RHS1      c220      1
    RHS1      c221      1
    RHS1      c222      1
    RHS1      c223      1
    RHS1      c224      1
    RHS1      c225      1
    RHS1      c226      1
    RHS1      c227      1
    RHS1      c228      1
    RHS1      c229      1
    RHS1      c230      1
    RHS1      c231      1
    RHS1      c232      1
    RHS1      c233      1
    RHS1      c234      1
    RHS1      c235      1
BOUNDS
 BV BND1      x[0,0,0]
 BV BND1      x[0,0,1]
 BV BND1      x[0,0,2]
 BV BND1      x[0,0,3]
 BV BND1      x[1,0,0]
 BV BND1      x[1,0,1]
 BV BND1      x[1,0,2]
 BV BND1      x[1,0,3]
 BV BND1      x[2,0,0]
 BV BND1      x[2,0,1]
 BV BND1      x[2,0,2]
 BV BND1      x[2,0,3]
 BV BND1      x[3,0,0]
 BV BND1      x[3,0,1]
 BV BND1      x[3,0,2]
 BV BND1      x[3,0,3]
 BV BND1      y[0,0,0]
 BV BND1      y[0,0,1]
 BV BND1      y[0,0,2]
 BV BND1      y[0,0,3]
 BV BND1      y[1,0,0]
 BV BND1      y[1,0,1]
 BV BND1      y[1,0,2]
 BV BND1      y[1,0,3]
 BV BND1      y[2,0,0]
 BV BND1      y[2,0,1]
 BV BND1      y[2,0,2]
 BV BND1      y[2,0,3]
 BV BND1      y[3,0,0]
 BV BND1      y[3,0,1]
 BV BND1      y[3,0,2]
 BV BND1      y[3,0,3]
 BV BND1      z1[0,0,0]
 BV BND1      z2[0,0,0]
 BV BND1      z3[0,0,0]
 BV BND1      z4[0,0,0]
 BV BND1      z1[0,0,1]
 BV BND1      z2[0,0,1]
 BV BND1      z3[0,0,1]
 BV BND1      z4[0,0,1]
 BV BND1      z1[0,0,2]
 BV BND1      z2[0,0,2]
 BV BND1      z3[0,0,2]
 BV BND1      z4[0,0,2]
 BV BND1      z1[0,0,3]
 BV BND1      z2[0,0,3]
 BV BND1      z3[0,0,3]
 BV BND1      z4[0,0,3]
 BV BND1      z1[1,0,0]
 BV BND1      z2[1,0,0]
 BV BND1      z3[1,0,0]
 BV BND1      z4[1,0,0]
 BV BND1      z1[1,0,1]
 BV BND1      z2[1,0,1]
 BV BND1      z3[1,0,1]
 BV BND1      z4[1,0,1]
 BV BND1      z1[1,0,2]
 BV BND1      z2[1,0,2]
 BV BND1      z3[1,0,2]
 BV BND1      z4[1,0,2]
 BV BND1      z1[1,0,3]
 BV BND1      z2[1,0,3]
 BV BND1      z3[1,0,3]
 BV BND1      z4[1,0,3]
 BV BND1      z1[2,0,0]
 BV BND1      z2[2,0,0]
 BV BND1      z3[2,0,0]
 BV BND1      z4[2,0,0]
 BV BND1      z1[2,0,1]
 BV BND1      z2[2,0,1]
 BV BND1      z3[2,0,1]
 BV BND1      z4[2,0,1]
 BV BND1      z1[2,0,2]
 BV BND1      z2[2,0,2]
 BV BND1      z3[2,0,2]
 BV BND1      z4[2,0,2]
 BV BND1      z1[2,0,3]
 BV BND1      z2[2,0,3]
 BV BND1      z3[2,0,3]
 BV BND1      z4[2,0,3]
 BV BND1      z1[3,0,0]
 BV BND1      z2[3,0,0]
 BV BND1      z3[3,0,0]
 BV BND1      z4[3,0,0]
 BV BND1      z1[3,0,1]
 BV BND1      z2[3,0,1]
 BV BND1      z3[3,0,1]
 BV BND1      z4[3,0,1]
 BV BND1      z1[3,0,2]
 BV BND1      z2[3,0,2]
 BV BND1      z3[3,0,2]
 BV BND1      z4[3,0,2]
 BV BND1      z1[3,0,3]
 BV BND1      z2[3,0,3]
 BV BND1      z3[3,0,3]
 BV BND1      z4[3,0,3]
 BV BND1      u[0,0,0]
 BV BND1      u[0,0,1]
 BV BND1      u[0,0,2]
 BV BND1      u[0,0,3]
 BV BND1      u[1,0,0]
 BV BND1      u[1,0,1]
 BV BND1      u[1,0,2]
 BV BND1      u[1,0,3]
 BV BND1      u[2,0,0]
 BV BND1      u[2,0,1]
 BV BND1      u[2,0,2]
 BV BND1      u[2,0,3]
 BV BND1      u[3,0,0]
 BV BND1      u[3,0,1]
 BV BND1      u[3,0,2]
 BV BND1      u[3,0,3]
 FX BND1      h[0,0]    4
 UP BND1      h[0,1]    4
 UP BND1      h[0,2]    4
 UP BND1      h[0,3]    4
 FX BND1      h[1,0]    4
 UP BND1      h[1,1]    4
 UP BND1      h[1,2]    4
 UP BND1      h[1,3]    4
 FX BND1      h[2,0]    4
 UP BND1      h[2,1]    4
 UP BND1      h[2,2]    4
 UP BND1      h[2,3]    4
 FX BND1      h[3,0]    4
 UP BND1      h[3,1]    4
 UP BND1      h[3,2]    4
 UP BND1      h[3,3]    4
 UP BND1      e[0]      24
 UP BND1      e[1]      24
 UP BND1      e[2]      24
 UP BND1      e[3]      24
ENDATA
